PROBLEM NAME: eil51_n18
KNAPSACK DATA TYPE: multiple strongly correlated
DIMENSION: 18
NUMBER OF ITEMS: 17
CAPACITY OF KNAPSACK: 992
MIN SPEED: 0.1
MAX SPEED: 1
RENTING RATIO: 2.50
EDGE_WEIGHT_TYPE: CEIL_2D
NODE_COORD_SECTION	(INDEX, X, Y):
1	37	52
2	49	49
3	20	26
4	21	47
5	17	63
6	31	62
7	51	21
8	42	41
9	31	32
10	27	23
11	17	33
12	7	38
13	58	27
14	38	46
15	32	22
16	5	6
17	25	55
18	48	28
ITEMS SECTION	(INDEX, PROFIT, WEIGHT, ASSIGNED NODE NUMBER):
1	1192	992	14
2	1015	815	8
3	991	791	2
4	867	667	13
5	849	649	7
6	798	598	18
7	744	544	9
8	706	506	15
9	657	457	10
10	646	446	16
11	622	422	3
12	616	416	11
13	559	359	12
14	534	334	4
15	437	237	17
16	294	94	5
17	207	7	6
